Solver command line: []

Read LP format model from file C:\Users\wlhlm\AppData\Local\Temp\tmpf1v4i7ha.pyomo.lp
Reading time = 2.89 seconds
objective: 959184 rows, 858479 columns, 2176806 nonzeros
Set parameter MIPGap to value 0.03
Gurobi Optimizer version 12.0.1 build v12.0.1rc0 (win64 - Windows 11.0 (26100.2))

CPU model: Intel(R) Core(TM) Ultra 7 258V, instruction set [SSE2|AVX|AVX2]
Thread count: 8 physical cores, 8 logical processors, using up to 8 threads

Non-default parameters:
MIPGap  0.03

Optimize a model with 959184 rows, 858479 columns and 2176806 nonzeros
Model fingerprint: 0x308de469
Model has 8759 quadratic constraints
Variable types: 735840 continuous, 122639 integer (105120 binary)
Coefficient statistics:
  Matrix range     [6e-03, 2e+02]
  QMatrix range    [1e+00, 1e+00]
  Objective range  [1e-02, 3e+02]
  Bounds range     [1e+00, 3e+00]
  RHS range        [8e-05, 1e+04]
Presolve removed 768549 rows and 652308 columns
Presolve time: 1.76s
Presolved: 190635 rows, 206171 columns, 614120 nonzeros
Variable types: 142933 continuous, 63238 integer (63238 binary)
Performing another presolve...
Presolve removed 52564 rows and 52565 columns (presolve time = 5s)...
Presolve removed 52564 rows and 52565 columns
Presolve time: 5.28s
Deterministic concurrent LP optimizer: primal and dual simplex
Showing primal log only...


Root simplex log...

Iteration    Objective       Primal Inf.    Dual Inf.      Time
       0    3.2135815e+07   2.733080e+07   6.174570e+13      8s
   49501    2.3643130e+07   7.053892e+03   7.178941e+09     10s
Concurrent spin time: 0.01s

Solved with dual simplex

Root simplex log...

Iteration    Objective       Primal Inf.    Dual Inf.      Time
   49413    1.0876300e+07   0.000000e+00   0.000000e+00     11s

Root relaxation: objective 1.087630e+07, 49413 iterations, 3.45 seconds (5.02 work units)
Total elapsed time = 11.39s (DegenMoves)

    Nodes    |    Current Node    |     Objective Bounds      |     Work
 Expl Unexpl |  Obj  Depth IntInf | Incumbent    BestBd   Gap | It/Node Time

     0     0 1.0876e+07    0  898          - 1.0876e+07      -     -   15s
H    0     0                    1.152972e+07 1.0876e+07  5.67%     -   16s
     0     0 1.0893e+07    0  928 1.1530e+07 1.0893e+07  5.52%     -   20s
     0     0 1.0895e+07    0  903 1.1530e+07 1.0895e+07  5.51%     -   23s
     0     0 1.0895e+07    0  909 1.1530e+07 1.0895e+07  5.51%     -   23s
     0     0 1.0895e+07    0  909 1.1530e+07 1.0895e+07  5.51%     -   23s
     0     0 1.0899e+07    0  839 1.1530e+07 1.0899e+07  5.47%     -   26s
     0     0 1.0900e+07    0  776 1.1530e+07 1.0900e+07  5.46%     -   27s
     0     0 1.0901e+07    0  764 1.1530e+07 1.0901e+07  5.46%     -   27s
     0     0 1.0901e+07    0  766 1.1530e+07 1.0901e+07  5.46%     -   27s
     0     0 1.0901e+07    0  767 1.1530e+07 1.0901e+07  5.46%     -   28s
     0     0 1.0901e+07    0  767 1.1530e+07 1.0901e+07  5.46%     -   28s
     0     0 1.0903e+07    0  693 1.1530e+07 1.0903e+07  5.44%     -   32s
     0     0 1.0903e+07    0  662 1.1530e+07 1.0903e+07  5.44%     -   33s
     0     0 1.0903e+07    0  663 1.1530e+07 1.0903e+07  5.44%     -   34s
     0     0 1.0903e+07    0  665 1.1530e+07 1.0903e+07  5.44%     -   34s
H    0     0                    1.151181e+07 1.0903e+07  5.29%     -   37s
H    0     0                    1.150568e+07 1.0903e+07  5.24%     -   37s
H    0     0                    1.150553e+07 1.0903e+07  5.24%     -   37s
H    0     0                    1.150553e+07 1.0903e+07  5.24%     -   37s
H    0     0                    1.150500e+07 1.0903e+07  5.23%     -   37s
H    0     0                    1.150495e+07 1.0903e+07  5.23%     -   37s
H    0     0                    1.150494e+07 1.0903e+07  5.23%     -   37s
H    0     0                    1.150470e+07 1.0903e+07  5.23%     -   37s
     0     0 1.0904e+07    0  631 1.1505e+07 1.0904e+07  5.22%     -   38s
H    0     0                    1.149594e+07 1.0904e+07  5.15%     -   40s
H    0     0                    1.149436e+07 1.0904e+07  5.14%     -   40s
H    0     0                    1.148997e+07 1.0904e+07  5.10%     -   40s
H    0     0                    1.148903e+07 1.0904e+07  5.10%     -   40s
     0     0 1.0904e+07    0  632 1.1489e+07 1.0904e+07  5.09%     -   40s
     0     0 1.0904e+07    0  629 1.1489e+07 1.0904e+07  5.09%     -   41s
     0     0 1.0904e+07    0  635 1.1489e+07 1.0904e+07  5.09%     -   41s
     0     0 1.0904e+07    0  660 1.1489e+07 1.0904e+07  5.09%     -   42s
     0     0 1.0904e+07    0  641 1.1489e+07 1.0904e+07  5.09%     -   43s
     0     0 1.0904e+07    0  644 1.1489e+07 1.0904e+07  5.09%     -   44s
     0     0 1.0904e+07    0  645 1.1489e+07 1.0904e+07  5.09%     -   44s
     0     0 1.0904e+07    0  650 1.1489e+07 1.0904e+07  5.09%     -   45s
H    0     0                    1.147965e+07 1.0904e+07  5.01%     -   47s
H    0     0                    1.147150e+07 1.0904e+07  4.95%     -   47s
H    0     0                    1.147093e+07 1.0904e+07  4.94%     -   47s
H    0     0                    1.147012e+07 1.0904e+07  4.93%     -   48s
H    0     0                    1.146951e+07 1.0904e+07  4.93%     -   48s
H    0     0                    1.146946e+07 1.0904e+07  4.93%     -   48s
H    0     0                    1.146943e+07 1.0904e+07  4.93%     -   49s
H    0     0                    1.146934e+07 1.0904e+07  4.93%     -   49s
     0     0 1.0904e+07    0  655 1.1469e+07 1.0904e+07  4.93%     -   49s
     0     0 1.0904e+07    0  662 1.1469e+07 1.0904e+07  4.93%     -   50s
     0     0 1.0904e+07    0  666 1.1469e+07 1.0904e+07  4.93%     -   51s
     0     0 1.0904e+07    0  667 1.1469e+07 1.0904e+07  4.93%     -   52s
H    0     0                    1.145820e+07 1.0904e+07  4.83%     -   54s
H    0     0                    1.145802e+07 1.0904e+07  4.83%     -   54s
H    0     0                    1.145791e+07 1.0904e+07  4.83%     -   54s
H    0     0                    1.145773e+07 1.0904e+07  4.83%     -   55s
     0     0 1.0904e+07    0  669 1.1458e+07 1.0904e+07  4.83%     -   55s
     0     0 1.0904e+07    0  668 1.1458e+07 1.0904e+07  4.83%     -   56s
     0     0 1.0904e+07    0  530 1.1458e+07 1.0904e+07  4.83%     -   58s
     0     2 1.0904e+07    0  516 1.1458e+07 1.0904e+07  4.83%     -   61s
H   55    64                    1.143395e+07 1.0904e+07  4.63%  60.3   69s
    63    92 1.0905e+07   10  593 1.1434e+07 1.0904e+07  4.63%  53.7   70s
   162   227 1.0905e+07   16  592 1.1434e+07 1.0904e+07  4.63%  24.2   75s
H  227   262                    1.141683e+07 1.0904e+07  4.49%  18.1   78s
   261   359 1.0905e+07   25  587 1.1417e+07 1.0904e+07  4.49%  16.1   80s
   498   697 1.0905e+07   51  587 1.1417e+07 1.0904e+07  4.49%   9.3   86s
   696   894 1.0905e+07   72  588 1.1417e+07 1.0904e+07  4.49%   7.1   91s
H  892   894                    1.141499e+07 1.0904e+07  4.47%   6.0   92s
   893  1110 1.0905e+07  104  588 1.1415e+07 1.0904e+07  4.47%   6.0  106s
H  919  1110                    1.141498e+07 1.0904e+07  4.47%   5.9  106s
H  946  1110                    1.141433e+07 1.0904e+07  4.47%   5.7  106s
H 1027  1110                    1.140384e+07 1.0904e+07  4.38%   5.4  106s
H 1109  1118                    1.136683e+07 1.0904e+07  4.07%   5.2  134s
H 1111  1118                    1.136065e+07 1.0904e+07  4.02%   5.2  134s
  1117  1928 1.0905e+07  122  587 1.1361e+07 1.0904e+07  4.02%   5.1  143s
  1927  2320 1.0907e+07  197  587 1.1361e+07 1.0904e+07  4.02%   3.7  153s
H 2319  2328                    1.109357e+07 1.0904e+07  1.71%   3.6  175s
H 2320  2328                    1.108660e+07 1.0904e+07  1.65%   3.6  175s
H 2326  2328                    1.108234e+07 1.0904e+07  1.61%   3.6  175s

Cutting planes:
  Learned: 45
  Gomory: 201
  Cover: 613
  Implied bound: 211
  MIR: 1541
  Flow cover: 1180
  Flow path: 7
  RLT: 68
  Relax-and-lift: 319

Explored 2327 nodes (82660 simplex iterations) in 176.22 seconds (113.65 work units)
Thread count was 8 (of 8 available processors)

Solution count 10: 1.10823e+07 1.10866e+07 1.10936e+07 ... 1.14577e+07

Optimal solution found (tolerance 3.00e-02)
Best objective 1.108234079396e+07, best bound 1.090420962382e+07, gap 1.6073%

